p cnf 313 2537
134 139 148 248 0
121 151 156 0
138 165 0
199 256 259 0
124 125 216 0
118 142 158 0
114 122 168 268 271 0
101 107 109 274 0
83 153 161 175 0
178 181 193 0
48 110 136 0
103 186 222 226 282 284 0
188 191 195 196 201 289 0
127 149 173 204 206 311 0
209 210 212 217 0
97 99 100 0
91 92 94 116 0
88 89 113 146 0
84 86 87 174 0
74 75 79 81 0
72 73 128 129 132 0
71 150 154 176 179 0
68 70 102 182 0
66 67 0
65 123 211 214 0
62 63 64 95 0
61 112 145 0
82 152 159 0
59 60 77 0
57 58 130 0
52 54 55 56 0
46 47 49 51 135 169 0
69 104 111 184 187 218 0
162 167 189 192 219 0
205 207 213 220 0
221 224 225 228 0
93 98 229 0
90 117 230 231 232 0
233 234 235 236 238 0
80 85 240 0
126 133 241 242 0
177 180 243 0
155 244 245 246 0
140 147 247 249 0
250 251 0
253 254 295 0
96 255 257 260 0
120 144 261 262 263 0
108 264 265 266 0
78 267 269 272 0
131 273 275 0
276 277 279 0
50 171 280 0
106 164 183 185 0
194 197 202 281 0
208 223 283 285 0
190 227 286 0
-153 -287 0
-53 -153 0
-153 -178 0
-136 -153 0
-53 -287 0
-178 -287 0
-136 -287 0
-53 -178 0
-53 -136 0
-136 -178 0
-94 -209 0
-89 -209 0
-209 -237 0
-87 -209 0
-89 -94 0
-94 -237 0
-87 -94 0
-89 -237 0
-87 -89 0
-87 -237 0
-58 -64 0
-56 -64 0
-64 -288 0
-56 -58 0
-58 -288 0
-56 -288 0
-51 -98 0
-51 -117 0
-51 -233 0
-98 -117 0
-98 -233 0
-117 -233 0
-261 -264 0
-160 -261 0
-78 -261 0
-261 -273 0
-160 -264 0
-78 -264 0
-264 -273 0
-78 -160 0
-160 -273 0
-78 -273 0
-166 -185 0
-185 -208 0
-185 -227 0
-185 -290 0
-166 -208 0
-166 -227 0
-166 -290 0
-208 -227 0
-208 -290 0
-227 -290 0
-51 -64 0
-153 -209 0
-153 -261 0
-153 -185 0
-209 -261 0
-185 -209 0
-185 -261 0
-94 -287 0
-264 -287 0
-166 -287 0
-94 -264 0
-94 -166 0
-166 -264 0
-53 -89 0
-53 -58 0
-53 -98 0
-53 -160 0
-53 -208 0
-58 -89 0
-89 -98 0
-89 -160 0
-89 -208 0
-58 -98 0
-58 -160 0
-58 -208 0
-98 -160 0
-98 -208 0
-160 -208 0
-178 -237 0
-56 -178 0
-117 -178 0
-78 -178 0
-178 -227 0
-56 -237 0
-117 -237 0
-78 -237 0
-227 -237 0
-56 -117 0
-56 -78 0
-56 -227 0
-78 -117 0
-117 -227 0
-78 -227 0
-87 -136 0
-136 -288 0
-136 -233 0
-136 -273 0
-136 -290 0
-87 -288 0
-87 -233 0
-87 -273 0
-87 -290 0
-233 -288 0
-273 -288 0
-288 -290 0
-233 -273 0
-233 -290 0
-273 -290 0
-282 -311 0
-70 -176 0
-176 -252 0
-70 -252 0
-198 -221 0
-198 -230 0
-221 -230 0
-76 -291 0
-133 -291 0
-155 -291 0
-76 -133 0
-76 -155 0
-133 -155 0
-96 -292 0
-262 -292 0
-265 -292 0
-96 -262 0
-96 -265 0
-262 -265 0
-282 -291 0
-282 -292 0
-291 -292 0
-76 -311 0
-96 -311 0
-76 -96 0
-176 -198 0
-133 -176 0
-176 -262 0
-133 -198 0
-198 -262 0
-133 -262 0
-70 -221 0
-70 -155 0
-70 -265 0
-155 -221 0
-221 -265 0
-155 -265 0
-230 -252 0
-139 -294 0
-139 -151 0
-138 -139 0
-139 -296 0
-139 -256 0
-139 -297 0
-124 -139 0
-139 -258 0
-151 -294 0
-138 -294 0
-294 -296 0
-256 -294 0
-294 -297 0
-124 -294 0
-258 -294 0
-138 -151 0
-151 -296 0
-151 -256 0
-151 -297 0
-124 -151 0
-151 -258 0
-138 -296 0
-138 -256 0
-138 -297 0
-124 -138 0
-138 -258 0
-256 -296 0
-296 -297 0
-124 -296 0
-258 -296 0
-256 -297 0
-124 -256 0
-256 -258 0
-124 -297 0
-258 -297 0
-124 -258 0
-158 -268 0
-109 -158 0
-158 -161 0
-158 -270 0
-158 -298 0
-158 -299 0
-158 -181 0
-48 -158 0
-109 -268 0
-161 -268 0
-268 -270 0
-268 -298 0
-268 -299 0
-181 -268 0
-48 -268 0
-109 -161 0
-109 -270 0
-109 -298 0
-109 -299 0
-109 -181 0
-48 -109 0
-161 -270 0
-161 -298 0
-161 -299 0
-161 -181 0
-48 -161 0
-270 -298 0
-270 -299 0
-181 -270 0
-48 -270 0
-298 -299 0
-181 -298 0
-48 -298 0
-181 -299 0
-48 -299 0
-48 -181 0
-186 -188 0
-149 -186 0
-186 -210 0
-100 -186 0
-92 -186 0
-88 -186 0
-186 -239 0
-86 -186 0
-149 -188 0
-188 -210 0
-100 -188 0
-92 -188 0
-88 -188 0
-188 -239 0
-86 -188 0
-149 -210 0
-100 -149 0
-92 -149 0
-88 -149 0
-149 -239 0
-86 -149 0
-100 -210 0
-92 -210 0
-88 -210 0
-210 -239 0
-86 -210 0
-92 -100 0
-88 -100 0
-100 -239 0
-86 -100 0
-88 -92 0
-92 -239 0
-86 -92 0
-88 -239 0
-86 -88 0
-86 -239 0
-73 -81 0
-81 -300 0
-71 -81 0
-81 -301 0
-81 -182 0
-67 -81 0
-81 -200 0
-65 -81 0
-73 -300 0
-71 -73 0
-73 -301 0
-73 -182 0
-67 -73 0
-73 -200 0
-65 -73 0
-71 -300 0
-300 -301 0
-182 -300 0
-67 -300 0
-200 -300 0
-65 -300 0
-71 -301 0
-71 -182 0
-67 -71 0
-71 -200 0
-65 -71 0
-182 -301 0
-67 -301 0
-200 -301 0
-65 -301 0
-67 -182 0
-182 -200 0
-65 -182 0
-67 -200 0
-65 -67 0
-65 -200 0
-63 -302 0
-61 -63 0
-63 -115 0
-63 -152 0
-60 -63 0
-57 -63 0
-55 -63 0
-63 -278 0
-61 -302 0
-115 -302 0
-152 -302 0
-60 -302 0
-57 -302 0
-55 -302 0
-278 -302 0
-61 -115 0
-61 -152 0
-60 -61 0
-57 -61 0
-55 -61 0
-61 -278 0
-115 -152 0
-60 -115 0
-57 -115 0
-55 -115 0
-115 -278 0
-60 -152 0
-57 -152 0
-55 -152 0
-152 -278 0
-57 -60 0
-55 -60 0
-60 -278 0
-55 -57 0
-57 -278 0
-55 -278 0
-69 -169 0
-169 -219 0
-169 -303 0
-169 -220 0
-169 -224 0
-169 -229 0
-169 -231 0
-169 -234 0
-69 -219 0
-69 -303 0
-69 -220 0
-69 -224 0
-69 -229 0
-69 -231 0
-69 -234 0
-219 -303 0
-219 -220 0
-219 -224 0
-219 -229 0
-219 -231 0
-219 -234 0
-220 -303 0
-224 -303 0
-229 -303 0
-231 -303 0
-234 -303 0
-220 -224 0
-220 -229 0
-220 -231 0
-220 -234 0
-224 -229 0
-224 -231 0
-224 -234 0
-229 -231 0
-229 -234 0
-231 -234 0
-240 -304 0
-304 -305 0
-241 -304 0
-243 -304 0
-244 -304 0
-247 -304 0
-304 -306 0
-250 -304 0
-240 -305 0
-240 -241 0
-240 -243 0
-240 -244 0
-240 -247 0
-240 -306 0
-240 -250 0
-241 -305 0
-243 -305 0
-244 -305 0
-247 -305 0
-305 -306 0
-250 -305 0
-241 -243 0
-241 -244 0
-241 -247 0
-241 -306 0
-241 -250 0
-243 -244 0
-243 -247 0
-243 -306 0
-243 -250 0
-244 -247 0
-244 -306 0
-244 -250 0
-247 -306 0
-247 -250 0
-250 -306 0
-253 -307 0
-255 -307 0
-263 -307 0
-307 -308 0
-266 -307 0
-307 -309 0
-267 -307 0
-131 -307 0
-253 -255 0
-253 -263 0
-253 -308 0
-253 -266 0
-253 -309 0
-253 -267 0
-131 -253 0
-255 -263 0
-255 -308 0
-255 -266 0
-255 -309 0
-255 -267 0
-131 -255 0
-263 -308 0
-263 -266 0
-263 -309 0
-263 -267 0
-131 -263 0
-266 -308 0
-308 -309 0
-267 -308 0
-131 -308 0
-266 -309 0
-266 -267 0
-131 -266 0
-267 -309 0
-131 -309 0
-131 -267 0
-276 -280 0
-276 -310 0
-183 -276 0
-276 -281 0
-203 -276 0
-276 -283 0
-276 -286 0
-276 -312 0
-280 -310 0
-183 -280 0
-280 -281 0
-203 -280 0
-280 -283 0
-280 -286 0
-280 -312 0
-183 -310 0
-281 -310 0
-203 -310 0
-283 -310 0
-286 -310 0
-310 -312 0
-183 -281 0
-183 -203 0
-183 -283 0
-183 -286 0
-183 -312 0
-203 -281 0
-281 -283 0
-281 -286 0
-281 -312 0
-203 -283 0
-203 -286 0
-203 -312 0
-283 -286 0
-283 -312 0
-286 -312 0
-139 -158 0
-139 -186 0
-81 -139 0
-63 -139 0
-139 -169 0
-139 -304 0
-139 -307 0
-139 -276 0
-158 -186 0
-81 -158 0
-63 -158 0
-158 -169 0
-158 -304 0
-158 -307 0
-158 -276 0
-81 -186 0
-63 -186 0
-169 -186 0
-186 -304 0
-186 -307 0
-186 -276 0
-63 -81 0
-81 -169 0
-81 -304 0
-81 -307 0
-81 -276 0
-63 -169 0
-63 -304 0
-63 -307 0
-63 -276 0
-169 -304 0
-169 -307 0
-169 -276 0
-304 -307 0
-276 -304 0
-276 -307 0
-268 -294 0
-188 -294 0
-73 -294 0
-294 -302 0
-69 -294 0
-240 -294 0
-253 -294 0
-280 -294 0
-188 -268 0
-73 -268 0
-268 -302 0
-69 -268 0
-240 -268 0
-253 -268 0
-268 -280 0
-73 -188 0
-188 -302 0
-69 -188 0
-188 -240 0
-188 -253 0
-188 -280 0
-73 -302 0
-69 -73 0
-73 -240 0
-73 -253 0
-73 -280 0
-69 -302 0
-240 -302 0
-253 -302 0
-280 -302 0
-69 -240 0
-69 -253 0
-69 -280 0
-240 -253 0
-240 -280 0
-253 -280 0
-109 -151 0
-149 -151 0
-151 -300 0
-61 -151 0
-151 -219 0
-151 -305 0
-151 -255 0
-151 -310 0
-109 -149 0
-109 -300 0
-61 -109 0
-109 -219 0
-109 -305 0
-109 -255 0
-109 -310 0
-149 -300 0
-61 -149 0
-149 -219 0
-149 -305 0
-149 -255 0
-149 -310 0
-61 -300 0
-219 -300 0
-300 -305 0
-255 -300 0
-300 -310 0
-61 -219 0
-61 -305 0
-61 -255 0
-61 -310 0
-219 -305 0
-219 -255 0
-219 -310 0
-255 -305 0
-305 -310 0
-255 -310 0
-138 -161 0
-138 -210 0
-71 -138 0
-115 -138 0
-138 -303 0
-138 -241 0
-138 -263 0
-138 -183 0
-161 -210 0
-71 -161 0
-115 -161 0
-161 -303 0
-161 -241 0
-161 -263 0
-161 -183 0
-71 -210 0
-115 -210 0
-210 -303 0
-210 -241 0
-210 -263 0
-183 -210 0
-71 -115 0
-71 -303 0
-71 -241 0
-71 -263 0
-71 -183 0
-115 -303 0
-115 -241 0
-115 -263 0
-115 -183 0
-241 -303 0
-263 -303 0
-183 -303 0
-241 -263 0
-183 -241 0
-183 -263 0
-270 -296 0
-100 -296 0
-296 -301 0
-152 -296 0
-220 -296 0
-243 -296 0
-296 -308 0
-281 -296 0
-100 -270 0
-270 -301 0
-152 -270 0
-220 -270 0
-243 -270 0
-270 -308 0
-270 -281 0
-100 -301 0
-100 -152 0
-100 -220 0
-100 -243 0
-100 -308 0
-100 -281 0
-152 -301 0
-220 -301 0
-243 -301 0
-301 -308 0
-281 -301 0
-152 -220 0
-152 -243 0
-152 -308 0
-152 -281 0
-220 -243 0
-220 -308 0
-220 -281 0
-243 -308 0
-243 -281 0
-281 -308 0
-256 -298 0
-92 -256 0
-182 -256 0
-60 -256 0
-224 -256 0
-244 -256 0
-256 -266 0
-203 -256 0
-92 -298 0
-182 -298 0
-60 -298 0
-224 -298 0
-244 -298 0
-266 -298 0
-203 -298 0
-92 -182 0
-60 -92 0
-92 -224 0
-92 -244 0
-92 -266 0
-92 -203 0
-60 -182 0
-182 -224 0
-182 -244 0
-182 -266 0
-182 -203 0
-60 -224 0
-60 -244 0
-60 -266 0
-60 -203 0
-224 -244 0
-224 -266 0
-203 -224 0
-244 -266 0
-203 -244 0
-203 -266 0
-297 -299 0
-88 -297 0
-67 -297 0
-57 -297 0
-229 -297 0
-247 -297 0
-297 -309 0
-283 -297 0
-88 -299 0
-67 -299 0
-57 -299 0
-229 -299 0
-247 -299 0
-299 -309 0
-283 -299 0
-67 -88 0
-57 -88 0
-88 -229 0
-88 -247 0
-88 -309 0
-88 -283 0
-57 -67 0
-67 -229 0
-67 -247 0
-67 -309 0
-67 -283 0
-57 -229 0
-57 -247 0
-57 -309 0
-57 -283 0
-229 -247 0
-229 -309 0
-229 -283 0
-247 -309 0
-247 -283 0
-283 -309 0
-124 -181 0
-124 -239 0
-124 -200 0
-55 -124 0
-124 -231 0
-124 -306 0
-124 -267 0
-124 -286 0
-181 -239 0
-181 -200 0
-55 -181 0
-181 -231 0
-181 -306 0
-181 -267 0
-181 -286 0
-200 -239 0
-55 -239 0
-231 -239 0
-239 -306 0
-239 -267 0
-239 -286 0
-55 -200 0
-200 -231 0
-200 -306 0
-200 -267 0
-200 -286 0
-55 -231 0
-55 -306 0
-55 -267 0
-55 -286 0
-231 -306 0
-231 -267 0
-231 -286 0
-267 -306 0
-286 -306 0
-267 -286 0
-48 -258 0
-86 -258 0
-65 -258 0
-258 -278 0
-234 -258 0
-250 -258 0
-131 -258 0
-258 -312 0
-48 -86 0
-48 -65 0
-48 -278 0
-48 -234 0
-48 -250 0
-48 -131 0
-48 -312 0
-65 -86 0
-86 -278 0
-86 -234 0
-86 -250 0
-86 -131 0
-86 -312 0
-65 -278 0
-65 -234 0
-65 -250 0
-65 -131 0
-65 -312 0
-234 -278 0
-250 -278 0
-131 -278 0
-278 -312 0
-234 -250 0
-131 -234 0
-234 -312 0
-131 -250 0
-250 -312 0
-131 -312 0
-134 -313 0
-134 -156 0
-134 -165 0
-45 -134 0
-119 -134 0
-134 -216 0
-156 -313 0
-165 -313 0
-45 -313 0
-119 -313 0
-216 -313 0
-156 -165 0
-45 -156 0
-119 -156 0
-156 -216 0
-45 -165 0
-119 -165 0
-165 -216 0
-45 -119 0
-45 -216 0
-119 -216 0
-118 -271 0
-118 -274 0
-83 -118 0
-44 -118 0
-105 -118 0
-118 -193 0
-271 -274 0
-83 -271 0
-44 -271 0
-105 -271 0
-193 -271 0
-83 -274 0
-44 -274 0
-105 -274 0
-193 -274 0
-44 -83 0
-83 -105 0
-83 -193 0
-44 -105 0
-44 -193 0
-105 -193 0
-103 -191 0
-103 -173 0
-103 -212 0
-99 -103 0
-103 -146 0
-43 -103 0
-173 -191 0
-191 -212 0
-99 -191 0
-146 -191 0
-43 -191 0
-173 -212 0
-99 -173 0
-146 -173 0
-43 -173 0
-99 -212 0
-146 -212 0
-43 -212 0
-99 -146 0
-43 -99 0
-43 -146 0
-72 -79 0
-42 -79 0
-79 -179 0
-41 -79 0
-42 -72 0
-72 -179 0
-41 -72 0
-42 -179 0
-41 -42 0
-41 -179 0
-49 -111 0
-49 -162 0
-40 -49 0
-49 -205 0
-111 -162 0
-40 -111 0
-111 -205 0
-40 -162 0
-162 -205 0
-40 -205 0
-39 -85 0
-38 -39 0
-39 -140 0
-39 -293 0
-38 -85 0
-85 -140 0
-85 -293 0
-38 -140 0
-38 -293 0
-140 -293 0
-137 -295 0
-137 -257 0
-137 -157 0
-137 -269 0
-257 -295 0
-157 -295 0
-269 -295 0
-157 -257 0
-257 -269 0
-157 -269 0
-118 -134 0
-103 -134 0
-79 -134 0
-49 -134 0
-39 -134 0
-134 -137 0
-103 -118 0
-79 -118 0
-49 -118 0
-39 -118 0
-118 -137 0
-79 -103 0
-49 -103 0
-39 -103 0
-103 -137 0
-49 -79 0
-39 -79 0
-79 -137 0
-39 -49 0
-49 -137 0
-39 -137 0
-271 -313 0
-191 -313 0
-72 -313 0
-111 -313 0
-85 -313 0
-295 -313 0
-191 -271 0
-72 -271 0
-111 -271 0
-85 -271 0
-271 -295 0
-72 -191 0
-111 -191 0
-85 -191 0
-191 -295 0
-72 -111 0
-72 -85 0
-72 -295 0
-85 -111 0
-111 -295 0
-85 -295 0
-156 -274 0
-156 -173 0
-42 -156 0
-156 -162 0
-38 -156 0
-156 -257 0
-173 -274 0
-42 -274 0
-162 -274 0
-38 -274 0
-257 -274 0
-42 -173 0
-162 -173 0
-38 -173 0
-173 -257 0
-42 -162 0
-38 -42 0
-42 -257 0
-38 -162 0
-162 -257 0
-38 -257 0
-83 -165 0
-165 -212 0
-165 -179 0
-40 -165 0
-83 -212 0
-83 -179 0
-40 -83 0
-179 -212 0
-40 -212 0
-40 -179 0
-44 -45 0
-45 -99 0
-41 -45 0
-45 -205 0
-44 -99 0
-41 -44 0
-44 -205 0
-41 -99 0
-99 -205 0
-41 -205 0
-105 -119 0
-119 -146 0
-119 -140 0
-119 -157 0
-105 -146 0
-105 -140 0
-105 -157 0
-140 -146 0
-146 -157 0
-140 -157 0
-193 -216 0
-43 -216 0
-216 -293 0
-216 -269 0
-43 -193 0
-193 -293 0
-193 -269 0
-43 -293 0
-43 -269 0
-269 -293 0
-107 -168 0
-168 -175 0
-37 -168 0
-36 -168 0
-107 -175 0
-37 -107 0
-36 -107 0
-37 -175 0
-36 -175 0
-36 -37 0
-127 -195 0
-195 -217 0
-97 -195 0
-116 -195 0
-127 -217 0
-97 -127 0
-116 -127 0
-97 -217 0
-116 -217 0
-97 -116 0
-35 -128 0
-128 -150 0
-34 -128 0
-102 -128 0
-33 -128 0
-128 -211 0
-35 -150 0
-34 -35 0
-35 -102 0
-33 -35 0
-35 -211 0
-34 -150 0
-102 -150 0
-33 -150 0
-150 -211 0
-34 -102 0
-33 -34 0
-34 -211 0
-33 -102 0
-102 -211 0
-33 -211 0
-32 -145 0
-31 -32 0
-32 -159 0
-32 -77 0
-32 -54 0
-30 -32 0
-31 -145 0
-145 -159 0
-77 -145 0
-54 -145 0
-30 -145 0
-31 -159 0
-31 -77 0
-31 -54 0
-30 -31 0
-77 -159 0
-54 -159 0
-30 -159 0
-54 -77 0
-30 -77 0
-30 -54 0
-167 -184 0
-29 -184 0
-184 -207 0
-184 -225 0
-184 -232 0
-184 -235 0
-29 -167 0
-167 -207 0
-167 -225 0
-167 -232 0
-167 -235 0
-29 -207 0
-29 -225 0
-29 -232 0
-29 -235 0
-207 -225 0
-207 -232 0
-207 -235 0
-225 -232 0
-225 -235 0
-232 -235 0
-120 -215 0
-108 -120 0
-120 -272 0
-120 -275 0
-108 -215 0
-215 -272 0
-215 -275 0
-108 -272 0
-108 -275 0
-272 -275 0
-106 -194 0
-28 -106 0
-106 -190 0
-106 -172 0
-28 -194 0
-190 -194 0
-172 -194 0
-28 -190 0
-28 -172 0
-172 -190 0
-168 -195 0
-128 -168 0
-32 -168 0
-168 -184 0
-128 -195 0
-32 -195 0
-184 -195 0
-32 -128 0
-128 -184 0
-32 -184 0
-107 -127 0
-35 -107 0
-107 -145 0
-107 -167 0
-35 -127 0
-127 -145 0
-127 -167 0
-35 -145 0
-35 -167 0
-145 -167 0
-175 -217 0
-150 -175 0
-31 -175 0
-29 -175 0
-120 -175 0
-106 -175 0
-150 -217 0
-31 -217 0
-29 -217 0
-120 -217 0
-106 -217 0
-31 -150 0
-29 -150 0
-120 -150 0
-106 -150 0
-29 -31 0
-31 -120 0
-31 -106 0
-29 -120 0
-29 -106 0
-106 -120 0
-37 -97 0
-34 -37 0
-37 -159 0
-37 -207 0
-37 -215 0
-37 -194 0
-34 -97 0
-97 -159 0
-97 -207 0
-97 -215 0
-97 -194 0
-34 -159 0
-34 -207 0
-34 -215 0
-34 -194 0
-159 -207 0
-159 -215 0
-159 -194 0
-207 -215 0
-194 -207 0
-194 -215 0
-36 -116 0
-36 -102 0
-36 -77 0
-36 -225 0
-36 -108 0
-28 -36 0
-102 -116 0
-77 -116 0
-116 -225 0
-108 -116 0
-28 -116 0
-77 -102 0
-102 -225 0
-102 -108 0
-28 -102 0
-77 -225 0
-77 -108 0
-28 -77 0
-108 -225 0
-28 -225 0
-28 -108 0
-33 -54 0
-33 -232 0
-33 -272 0
-33 -190 0
-54 -232 0
-54 -272 0
-54 -190 0
-232 -272 0
-190 -232 0
-190 -272 0
-30 -211 0
-211 -235 0
-211 -275 0
-172 -211 0
-30 -235 0
-30 -275 0
-30 -172 0
-235 -275 0
-172 -235 0
-172 -275 0
-27 -148 0
-125 -148 0
-26 -148 0
-27 -125 0
-26 -27 0
-26 -125 0
-196 -222 0
-25 -222 0
-174 -222 0
-25 -196 0
-174 -196 0
-25 -174 0
-75 -132 0
-75 -154 0
-68 -75 0
-24 -75 0
-75 -214 0
-132 -154 0
-68 -132 0
-24 -132 0
-132 -214 0
-68 -154 0
-24 -154 0
-154 -214 0
-24 -68 0
-68 -214 0
-24 -214 0
-23 -95 0
-22 -95 0
-59 -95 0
-52 -95 0
-21 -95 0
-22 -23 0
-23 -59 0
-23 -52 0
-21 -23 0
-22 -59 0
-22 -52 0
-21 -22 0
-52 -59 0
-21 -59 0
-21 -52 0
-135 -218 0
-20 -135 0
-135 -228 0
-90 -135 0
-135 -236 0
-20 -218 0
-218 -228 0
-90 -218 0
-218 -236 0
-20 -228 0
-20 -90 0
-20 -236 0
-90 -228 0
-228 -236 0
-90 -236 0
-242 -245 0
-148 -222 0
-75 -148 0
-95 -148 0
-135 -148 0
-75 -222 0
-95 -222 0
-135 -222 0
-75 -95 0
-75 -135 0
-95 -135 0
-27 -196 0
-27 -132 0
-23 -27 0
-27 -218 0
-132 -196 0
-23 -196 0
-196 -218 0
-23 -132 0
-132 -218 0
-23 -218 0
-22 -154 0
-20 -154 0
-154 -242 0
-20 -22 0
-22 -242 0
-20 -242 0
-59 -68 0
-68 -228 0
-68 -245 0
-59 -228 0
-59 -245 0
-228 -245 0
-25 -125 0
-24 -125 0
-52 -125 0
-90 -125 0
-24 -25 0
-25 -52 0
-25 -90 0
-24 -52 0
-24 -90 0
-52 -90 0
-26 -174 0
-26 -214 0
-21 -26 0
-26 -236 0
-174 -214 0
-21 -174 0
-174 -236 0
-21 -214 0
-214 -236 0
-21 -236 0
-18 -19 0
-19 -199 0
-18 -199 0
-114 -170 0
-17 -114 0
-17 -170 0
-15 -130 0
-177 -246 0
-147 -177 0
-177 -251 0
-147 -246 0
-246 -251 0
-147 -251 0
-14 -197 0
-197 -223 0
-13 -197 0
-14 -223 0
-13 -14 0
-13 -223 0
-19 -114 0
-18 -170 0
-18 -177 0
-18 -197 0
-170 -177 0
-170 -197 0
-177 -197 0
-17 -199 0
-199 -246 0
-14 -199 0
-17 -246 0
-14 -17 0
-14 -246 0
-130 -147 0
-130 -223 0
-147 -223 0
-15 -251 0
-13 -15 0
-13 -251 0
-12 -248 0
-121 -248 0
-248 -259 0
-143 -248 0
-11 -248 0
-12 -121 0
-12 -259 0
-12 -143 0
-11 -12 0
-121 -259 0
-121 -143 0
-11 -121 0
-143 -259 0
-11 -259 0
-11 -143 0
-122 -142 0
-101 -142 0
-10 -142 0
-142 -163 0
-110 -142 0
-101 -122 0
-10 -122 0
-122 -163 0
-110 -122 0
-10 -101 0
-101 -163 0
-101 -110 0
-10 -163 0
-10 -110 0
-110 -163 0
-201 -284 0
-204 -284 0
-91 -284 0
-113 -284 0
-84 -284 0
-201 -204 0
-91 -201 0
-113 -201 0
-84 -201 0
-91 -204 0
-113 -204 0
-84 -204 0
-91 -113 0
-84 -91 0
-84 -113 0
-74 -129 0
-8 -74 0
-66 -74 0
-74 -123 0
-8 -129 0
-66 -129 0
-123 -129 0
-8 -66 0
-8 -123 0
-66 -123 0
-47 -187 0
-47 -189 0
-47 -93 0
-47 -238 0
-187 -189 0
-93 -187 0
-187 -238 0
-93 -189 0
-189 -238 0
-93 -238 0
-171 -277 0
-16 -277 0
-16 -171 0
-142 -248 0
-248 -284 0
-74 -248 0
-47 -248 0
-248 -277 0
-142 -284 0
-74 -142 0
-47 -142 0
-142 -277 0
-74 -284 0
-47 -284 0
-277 -284 0
-47 -74 0
-74 -277 0
-47 -277 0
-12 -122 0
-12 -201 0
-12 -129 0
-12 -187 0
-12 -171 0
-122 -201 0
-122 -129 0
-122 -187 0
-122 -171 0
-129 -201 0
-187 -201 0
-171 -201 0
-129 -187 0
-129 -171 0
-171 -187 0
-101 -121 0
-121 -204 0
-8 -121 0
-121 -189 0
-16 -121 0
-101 -204 0
-8 -101 0
-101 -189 0
-16 -101 0
-8 -204 0
-189 -204 0
-16 -204 0
-8 -189 0
-8 -16 0
-16 -189 0
-10 -259 0
-91 -259 0
-10 -91 0
-143 -163 0
-113 -143 0
-66 -143 0
-93 -143 0
-113 -163 0
-66 -163 0
-93 -163 0
-66 -113 0
-93 -113 0
-66 -93 0
-11 -110 0
-11 -84 0
-11 -123 0
-11 -238 0
-84 -110 0
-110 -123 0
-110 -238 0
-84 -123 0
-84 -238 0
-123 -238 0
-226 -289 0
-206 -226 0
-206 -289 0
-7 -62 0
-62 -112 0
-6 -62 0
-62 -82 0
-7 -112 0
-6 -7 0
-7 -82 0
-6 -112 0
-82 -112 0
-6 -82 0
-46 -104 0
-46 -192 0
-5 -46 0
-46 -213 0
-104 -192 0
-5 -104 0
-104 -213 0
-5 -192 0
-192 -213 0
-5 -213 0
-4 -80 0
-3 -4 0
-4 -126 0
-4 -180 0
-4 -249 0
-3 -80 0
-80 -126 0
-80 -180 0
-80 -249 0
-3 -126 0
-3 -180 0
-3 -249 0
-126 -180 0
-126 -249 0
-180 -249 0
-2 -254 0
-2 -260 0
-2 -144 0
-1 -2 0
-2 -141 0
-254 -260 0
-144 -254 0
-1 -254 0
-141 -254 0
-144 -260 0
-1 -260 0
-141 -260 0
-1 -144 0
-141 -144 0
-1 -141 0
-50 -279 0
-9 -279 0
-164 -279 0
-202 -279 0
-279 -285 0
-9 -50 0
-50 -164 0
-50 -202 0
-50 -285 0
-9 -164 0
-9 -202 0
-9 -285 0
-164 -202 0
-164 -285 0
-202 -285 0
-62 -226 0
-46 -226 0
-4 -226 0
-2 -226 0
-226 -279 0
-46 -62 0
-4 -62 0
-2 -62 0
-62 -279 0
-4 -46 0
-2 -46 0
-46 -279 0
-2 -4 0
-4 -279 0
-2 -279 0
-7 -289 0
-104 -289 0
-80 -289 0
-254 -289 0
-50 -289 0
-7 -104 0
-7 -80 0
-7 -254 0
-7 -50 0
-80 -104 0
-104 -254 0
-50 -104 0
-80 -254 0
-50 -80 0
-50 -254 0
-112 -206 0
-192 -206 0
-3 -206 0
-206 -260 0
-9 -206 0
-112 -192 0
-3 -112 0
-112 -260 0
-9 -112 0
-3 -192 0
-192 -260 0
-9 -192 0
-3 -260 0
-3 -9 0
-9 -260 0
-5 -6 0
-6 -126 0
-6 -144 0
-6 -164 0
-5 -126 0
-5 -144 0
-5 -164 0
-126 -144 0
-126 -164 0
-144 -164 0
-82 -213 0
-82 -180 0
-1 -82 0
-82 -202 0
-180 -213 0
-1 -213 0
-202 -213 0
-1 -180 0
-180 -202 0
-1 -202 0
-141 -249 0
-249 -285 0
-141 -285 0
-282 -311 0
-139 -294 0
-139 -151 0
-139 -158 0
-139 -268 0
-109 -139 0
-139 -186 0
-139 -188 0
-139 -149 0
-151 -294 0
-158 -294 0
-268 -294 0
-109 -294 0
-186 -294 0
-188 -294 0
-149 -294 0
-151 -158 0
-151 -268 0
-109 -151 0
-151 -186 0
-151 -188 0
-149 -151 0
-158 -268 0
-109 -158 0
-158 -186 0
-158 -188 0
-149 -158 0
-109 -268 0
-186 -268 0
-188 -268 0
-149 -268 0
-109 -186 0
-109 -188 0
-109 -149 0
-186 -188 0
-149 -186 0
-149 -188 0
-134 -313 0
-134 -156 0
-118 -134 0
-134 -271 0
-134 -274 0
-103 -134 0
-134 -191 0
-134 -173 0
-156 -313 0
-118 -313 0
-271 -313 0
-274 -313 0
-103 -313 0
-191 -313 0
-173 -313 0
-118 -156 0
-156 -271 0
-156 -274 0
-103 -156 0
-156 -191 0
-156 -173 0
-118 -271 0
-118 -274 0
-103 -118 0
-118 -191 0
-118 -173 0
-271 -274 0
-103 -271 0
-191 -271 0
-173 -271 0
-103 -274 0
-191 -274 0
-173 -274 0
-103 -191 0
-103 -173 0
-173 -191 0
-107 -168 0
-168 -195 0
-127 -168 0
-107 -195 0
-107 -127 0
-127 -195 0
-27 -148 0
-148 -222 0
-148 -196 0
-27 -222 0
-27 -196 0
-196 -222 0
-19 -114 0
-12 -248 0
-121 -248 0
-142 -248 0
-122 -248 0
-101 -248 0
-248 -284 0
-201 -248 0
-204 -248 0
-12 -121 0
-12 -142 0
-12 -122 0
-12 -101 0
-12 -284 0
-12 -201 0
-12 -204 0
-121 -142 0
-121 -122 0
-101 -121 0
-121 -284 0
-121 -201 0
-121 -204 0
-122 -142 0
-101 -142 0
-142 -284 0
-142 -201 0
-142 -204 0
-101 -122 0
-122 -284 0
-122 -201 0
-122 -204 0
-101 -284 0
-101 -201 0
-101 -204 0
-201 -284 0
-204 -284 0
-201 -204 0
-226 -289 0
-206 -226 0
-206 -289 0
-153 -287 0
-153 -209 0
-94 -153 0
-209 -287 0
-94 -287 0
-94 -209 0
-138 -296 0
-138 -256 0
-138 -161 0
-138 -270 0
-138 -298 0
-138 -210 0
-100 -138 0
-92 -138 0
-256 -296 0
-161 -296 0
-270 -296 0
-296 -298 0
-210 -296 0
-100 -296 0
-92 -296 0
-161 -256 0
-256 -270 0
-256 -298 0
-210 -256 0
-100 -256 0
-92 -256 0
-161 -270 0
-161 -298 0
-161 -210 0
-100 -161 0
-92 -161 0
-270 -298 0
-210 -270 0
-100 -270 0
-92 -270 0
-210 -298 0
-100 -298 0
-92 -298 0
-100 -210 0
-92 -210 0
-92 -100 0
-45 -165 0
-83 -165 0
-44 -165 0
-165 -212 0
-99 -165 0
-45 -83 0
-44 -45 0
-45 -212 0
-45 -99 0
-44 -83 0
-83 -212 0
-83 -99 0
-44 -212 0
-44 -99 0
-99 -212 0
-37 -175 0
-36 -175 0
-175 -217 0
-97 -175 0
-116 -175 0
-36 -37 0
-37 -217 0
-37 -97 0
-37 -116 0
-36 -217 0
-36 -97 0
-36 -116 0
-97 -217 0
-116 -217 0
-97 -116 0
-18 -199 0
-18 -170 0
-17 -18 0
-170 -199 0
-17 -199 0
-17 -170 0
-10 -259 0
-91 -259 0
-10 -91 0
-53 -178 0
-53 -136 0
-53 -89 0
-53 -237 0
-53 -87 0
-136 -178 0
-89 -178 0
-178 -237 0
-87 -178 0
-89 -136 0
-136 -237 0
-87 -136 0
-89 -237 0
-87 -89 0
-87 -237 0
-124 -297 0
-258 -297 0
-297 -299 0
-181 -297 0
-48 -297 0
-88 -297 0
-239 -297 0
-86 -297 0
-124 -258 0
-124 -299 0
-124 -181 0
-48 -124 0
-88 -124 0
-124 -239 0
-86 -124 0
-258 -299 0
-181 -258 0
-48 -258 0
-88 -258 0
-239 -258 0
-86 -258 0
-181 -299 0
-48 -299 0
-88 -299 0
-239 -299 0
-86 -299 0
-48 -181 0
-88 -181 0
-181 -239 0
-86 -181 0
-48 -88 0
-48 -239 0
-48 -86 0
-88 -239 0
-86 -88 0
-86 -239 0
-119 -216 0
-105 -119 0
-119 -193 0
-119 -146 0
-43 -119 0
-105 -216 0
-193 -216 0
-146 -216 0
-43 -216 0
-105 -193 0
-105 -146 0
-43 -105 0
-146 -193 0
-43 -193 0
-43 -146 0
-26 -125 0
-25 -125 0
-125 -174 0
-25 -26 0
-26 -174 0
-25 -174 0
-11 -143 0
-143 -163 0
-110 -143 0
-113 -143 0
-84 -143 0
-11 -163 0
-11 -110 0
-11 -113 0
-11 -84 0
-110 -163 0
-113 -163 0
-84 -163 0
-110 -113 0
-84 -110 0
-84 -113 0
-51 -64 0
-73 -81 0
-81 -300 0
-63 -81 0
-81 -302 0
-61 -81 0
-81 -169 0
-69 -81 0
-81 -219 0
-73 -300 0
-63 -73 0
-73 -302 0
-61 -73 0
-73 -169 0
-69 -73 0
-73 -219 0
-63 -300 0
-300 -302 0
-61 -300 0
-169 -300 0
-69 -300 0
-219 -300 0
-63 -302 0
-61 -63 0
-63 -169 0
-63 -69 0
-63 -219 0
-61 -302 0
-169 -302 0
-69 -302 0
-219 -302 0
-61 -169 0
-61 -69 0
-61 -219 0
-69 -169 0
-169 -219 0
-69 -219 0
-72 -79 0
-42 -79 0
-49 -79 0
-79 -111 0
-79 -162 0
-42 -72 0
-49 -72 0
-72 -111 0
-72 -162 0
-42 -49 0
-42 -111 0
-42 -162 0
-49 -111 0
-49 -162 0
-111 -162 0
-35 -128 0
-32 -128 0
-128 -145 0
-128 -184 0
-128 -167 0
-32 -35 0
-35 -145 0
-35 -184 0
-35 -167 0
-32 -145 0
-32 -184 0
-32 -167 0
-145 -184 0
-145 -167 0
-167 -184 0
-75 -132 0
-75 -95 0
-23 -75 0
-75 -135 0
-75 -218 0
-95 -132 0
-23 -132 0
-132 -135 0
-132 -218 0
-23 -95 0
-95 -135 0
-95 -218 0
-23 -135 0
-23 -218 0
-135 -218 0
-74 -129 0
-8 -74 0
-47 -74 0
-74 -187 0
-74 -189 0
-8 -129 0
-47 -129 0
-129 -187 0
-129 -189 0
-8 -47 0
-8 -187 0
-8 -189 0
-47 -187 0
-47 -189 0
-187 -189 0
-7 -62 0
-62 -112 0
-46 -62 0
-62 -104 0
-62 -192 0
-7 -112 0
-7 -46 0
-7 -104 0
-7 -192 0
-46 -112 0
-104 -112 0
-112 -192 0
-46 -104 0
-46 -192 0
-104 -192 0
-70 -176 0
-176 -198 0
-176 -221 0
-70 -198 0
-70 -221 0
-198 -221 0
-71 -301 0
-71 -182 0
-71 -115 0
-71 -152 0
-60 -71 0
-71 -303 0
-71 -220 0
-71 -224 0
-182 -301 0
-115 -301 0
-152 -301 0
-60 -301 0
-301 -303 0
-220 -301 0
-224 -301 0
-115 -182 0
-152 -182 0
-60 -182 0
-182 -303 0
-182 -220 0
-182 -224 0
-115 -152 0
-60 -115 0
-115 -303 0
-115 -220 0
-115 -224 0
-60 -152 0
-152 -303 0
-152 -220 0
-152 -224 0
-60 -303 0
-60 -220 0
-60 -224 0
-220 -303 0
-224 -303 0
-220 -224 0
-41 -179 0
-40 -179 0
-179 -205 0
-40 -41 0
-41 -205 0
-40 -205 0
-34 -150 0
-102 -150 0
-31 -150 0
-150 -159 0
-77 -150 0
-29 -150 0
-150 -207 0
-150 -225 0
-34 -102 0
-31 -34 0
-34 -159 0
-34 -77 0
-29 -34 0
-34 -207 0
-34 -225 0
-31 -102 0
-102 -159 0
-77 -102 0
-29 -102 0
-102 -207 0
-102 -225 0
-31 -159 0
-31 -77 0
-29 -31 0
-31 -207 0
-31 -225 0
-77 -159 0
-29 -159 0
-159 -207 0
-159 -225 0
-29 -77 0
-77 -207 0
-77 -225 0
-29 -207 0
-29 -225 0
-207 -225 0
-68 -154 0
-22 -154 0
-59 -154 0
-20 -154 0
-154 -228 0
-22 -68 0
-59 -68 0
-20 -68 0
-68 -228 0
-22 -59 0
-20 -22 0
-22 -228 0
-20 -59 0
-59 -228 0
-20 -228 0
-6 -82 0
-5 -6 0
-6 -213 0
-5 -82 0
-82 -213 0
-5 -213 0
-56 -58 0
-58 -288 0
-58 -98 0
-58 -117 0
-58 -233 0
-56 -288 0
-56 -98 0
-56 -117 0
-56 -233 0
-98 -288 0
-117 -288 0
-233 -288 0
-98 -117 0
-98 -233 0
-117 -233 0
-230 -252 0
-67 -200 0
-65 -67 0
-57 -67 0
-55 -67 0
-67 -278 0
-67 -229 0
-67 -231 0
-67 -234 0
-65 -200 0
-57 -200 0
-55 -200 0
-200 -278 0
-200 -229 0
-200 -231 0
-200 -234 0
-57 -65 0
-55 -65 0
-65 -278 0
-65 -229 0
-65 -231 0
-65 -234 0
-55 -57 0
-57 -278 0
-57 -229 0
-57 -231 0
-57 -234 0
-55 -278 0
-55 -229 0
-55 -231 0
-55 -234 0
-229 -278 0
-231 -278 0
-234 -278 0
-229 -231 0
-229 -234 0
-231 -234 0
-33 -211 0
-33 -54 0
-30 -33 0
-33 -232 0
-33 -235 0
-54 -211 0
-30 -211 0
-211 -232 0
-211 -235 0
-30 -54 0
-54 -232 0
-54 -235 0
-30 -232 0
-30 -235 0
-232 -235 0
-24 -214 0
-24 -52 0
-21 -24 0
-24 -90 0
-24 -236 0
-52 -214 0
-21 -214 0
-90 -214 0
-214 -236 0
-21 -52 0
-52 -90 0
-52 -236 0
-21 -90 0
-21 -236 0
-90 -236 0
-15 -130 0
-66 -123 0
-66 -93 0
-66 -238 0
-93 -123 0
-123 -238 0
-93 -238 0
-76 -291 0
-291 -292 0
-96 -291 0
-76 -292 0
-76 -96 0
-96 -292 0
-240 -304 0
-304 -305 0
-304 -307 0
-253 -304 0
-255 -304 0
-276 -304 0
-280 -304 0
-304 -310 0
-240 -305 0
-240 -307 0
-240 -253 0
-240 -255 0
-240 -276 0
-240 -280 0
-240 -310 0
-305 -307 0
-253 -305 0
-255 -305 0
-276 -305 0
-280 -305 0
-305 -310 0
-253 -307 0
-255 -307 0
-276 -307 0
-280 -307 0
-307 -310 0
-253 -255 0
-253 -276 0
-253 -280 0
-253 -310 0
-255 -276 0
-255 -280 0
-255 -310 0
-276 -280 0
-276 -310 0
-280 -310 0
-39 -85 0
-38 -39 0
-39 -137 0
-39 -295 0
-39 -257 0
-38 -85 0
-85 -137 0
-85 -295 0
-85 -257 0
-38 -137 0
-38 -295 0
-38 -257 0
-137 -295 0
-137 -257 0
-257 -295 0
-171 -277 0
-16 -277 0
-16 -171 0
-4 -80 0
-3 -4 0
-2 -4 0
-4 -254 0
-4 -260 0
-4 -279 0
-4 -50 0
-4 -9 0
-3 -80 0
-2 -80 0
-80 -254 0
-80 -260 0
-80 -279 0
-50 -80 0
-9 -80 0
-2 -3 0
-3 -254 0
-3 -260 0
-3 -279 0
-3 -50 0
-3 -9 0
-2 -254 0
-2 -260 0
-2 -279 0
-2 -50 0
-2 -9 0
-254 -260 0
-254 -279 0
-50 -254 0
-9 -254 0
-260 -279 0
-50 -260 0
-9 -260 0
-50 -279 0
-9 -279 0
-9 -50 0
-261 -264 0
-185 -261 0
-166 -261 0
-185 -264 0
-166 -264 0
-166 -185 0
-133 -155 0
-133 -262 0
-133 -265 0
-155 -262 0
-155 -265 0
-262 -265 0
-241 -243 0
-241 -244 0
-241 -263 0
-241 -308 0
-241 -266 0
-183 -241 0
-241 -281 0
-203 -241 0
-243 -244 0
-243 -263 0
-243 -308 0
-243 -266 0
-183 -243 0
-243 -281 0
-203 -243 0
-244 -263 0
-244 -308 0
-244 -266 0
-183 -244 0
-244 -281 0
-203 -244 0
-263 -308 0
-263 -266 0
-183 -263 0
-263 -281 0
-203 -263 0
-266 -308 0
-183 -308 0
-281 -308 0
-203 -308 0
-183 -266 0
-266 -281 0
-203 -266 0
-183 -281 0
-183 -203 0
-203 -281 0
-120 -215 0
-108 -120 0
-106 -120 0
-120 -194 0
-28 -120 0
-108 -215 0
-106 -215 0
-194 -215 0
-28 -215 0
-106 -108 0
-108 -194 0
-28 -108 0
-106 -194 0
-28 -106 0
-28 -194 0
-242 -245 0
-177 -246 0
-177 -197 0
-14 -177 0
-197 -246 0
-14 -246 0
-14 -197 0
-126 -180 0
-126 -144 0
-1 -126 0
-126 -164 0
-126 -202 0
-144 -180 0
-1 -180 0
-164 -180 0
-180 -202 0
-1 -144 0
-144 -164 0
-144 -202 0
-1 -164 0
-1 -202 0
-164 -202 0
-78 -160 0
-160 -273 0
-160 -208 0
-160 -227 0
-160 -290 0
-78 -273 0
-78 -208 0
-78 -227 0
-78 -290 0
-208 -273 0
-227 -273 0
-273 -290 0
-208 -227 0
-208 -290 0
-227 -290 0
-247 -306 0
-247 -250 0
-247 -309 0
-247 -267 0
-131 -247 0
-247 -283 0
-247 -286 0
-247 -312 0
-250 -306 0
-306 -309 0
-267 -306 0
-131 -306 0
-283 -306 0
-286 -306 0
-306 -312 0
-250 -309 0
-250 -267 0
-131 -250 0
-250 -283 0
-250 -286 0
-250 -312 0
-267 -309 0
-131 -309 0
-283 -309 0
-286 -309 0
-309 -312 0
-131 -267 0
-267 -283 0
-267 -286 0
-267 -312 0
-131 -283 0
-131 -286 0
-131 -312 0
-283 -286 0
-283 -312 0
-286 -312 0
-140 -293 0
-140 -157 0
-140 -269 0
-157 -293 0
-269 -293 0
-157 -269 0
-272 -275 0
-190 -272 0
-172 -272 0
-190 -275 0
-172 -275 0
-172 -190 0
-147 -251 0
-147 -223 0
-13 -147 0
-223 -251 0
-13 -251 0
-13 -223 0
-141 -249 0
-249 -285 0
-141 -285 0
